NAME          
ROWS
 N  OBJ
 L  c1
COLUMNS
    MARKER    'MARKER'                 'INTORG'
    x[1]      c1        727
    x[1]      OBJ       -798
    x[2]      c1        426
    x[2]      OBJ       -504
    x[3]      c1        619
    x[3]      OBJ       -570
    x[4]      c1        287
    x[4]      OBJ       -192
    x[5]      c1        672
    x[5]      OBJ       -711
    x[6]      c1        423
    x[6]      OBJ       -469
    x[7]      c1        379
    x[7]      OBJ       -415
    x[8]      c1        -7
    x[8]      OBJ       -67
    x[9]      c1        679
    x[9]      OBJ       -589
    x[10]     c1        460
    x[10]     OBJ       -406
    x[11]     c1        711
    x[11]     OBJ       -685
    x[12]     c1        869
    x[12]     OBJ       -938
    x[13]     c1        529
    x[13]     OBJ       -434
    x[14]     c1        440
    x[14]     OBJ       -517
    x[15]     c1        303
    x[15]     OBJ       -261
    x[16]     c1        222
    x[16]     OBJ       -192
    x[17]     c1        399
    x[17]     OBJ       -317
    x[18]     c1        1063
    x[18]     OBJ       -999
    x[19]     c1        272
    x[19]     OBJ       -259
    x[20]     c1        517
    x[20]     OBJ       -520
RHS
    rhs       c1        4995
RANGES
BOUNDS
 BV bounds    x[1]
 BV bounds    x[2]
 BV bounds    x[3]
 BV bounds    x[4]
 BV bounds    x[5]
 BV bounds    x[6]
 BV bounds    x[7]
 BV bounds    x[8]
 BV bounds    x[9]
 BV bounds    x[10]
 BV bounds    x[11]
 BV bounds    x[12]
 BV bounds    x[13]
 BV bounds    x[14]
 BV bounds    x[15]
 BV bounds    x[16]
 BV bounds    x[17]
 BV bounds    x[18]
 BV bounds    x[19]
 BV bounds    x[20]
ENDATA
